186
0 122 74 24 51 102 134 39 75 46 
157 64 85 8 36 71 184 150 160 118 
63 40 98 178 17 54 97 113 73 162 
37 94 38 58 185 57 128 169 3 133 
103 49 136 47 42 32 175 21 96 149 
90 183 44 125 80 16 14 145 43 127 
6 151 129 68 101 10 83 100 20 77 
111 152 78 109 104 114 67 120 173 119 
123 167 56 93 165 166 9 181 163 61 
13 87 1 89 155 105 4 117 31 164 
82 168 92 26 140 69 170 23 141 139 
29 5 180 60 15 106 154 48 115 108 
116 62 88 156 79 27 55 33 121 182 
161 112 52 59 177 143 34 19 95 11 
12 153 28 25 179 72 126 22 144 174 
147 142 130 7 132 172 110 135 159 30 
158 131 124 84 76 81 86 50 18 41 
91 66 65 53 176 107 2 35 138 70 
45 137 171 148 99 146 
